;; sequence(s): A76054
;; terms: 1 3 5 6 7 8 10 12 14 16 17 19 21 22 23 24 26 27 28 29
;; small program: loop(loop((if (x mod 2) <= 0 then (2 + ((x + x) + x)) else x) div 2, x + x, y) + x, x, x) + 1
;; fast program: loop(loop(loop((if (x mod 2) <= 0 then (2 + ((x + x) + x)) else x) div 2, x + x, x) mod 2, 1, y) + x, x, 1) + x
(set-logic UFNIA)
(define-fun divf ((a Int) (b Int)) Int (ite (< 0 b) (div a b) (div (- a) (- b))))
(define-fun modf ((a Int) (b Int)) Int (ite (< 0 b) (mod a b) (- (mod (- a) (- b)))))
(declare-fun f1 (Int) Int)
(declare-fun g1 (Int) Int)
(declare-fun h1 (Int Int) Int)
(declare-fun u1 (Int Int) Int)
(declare-fun v1 (Int Int) Int)
(declare-fun f0 (Int Int) Int)
(declare-fun g0 (Int) Int)
(declare-fun h0 (Int) Int)
(declare-fun u0 (Int Int) Int)
(declare-fun v0 (Int) Int)
(declare-fun small (Int) Int)
(declare-fun f4 (Int) Int)
(declare-fun g4 (Int) Int)
(declare-fun h4 (Int) Int)
(declare-fun u4 (Int Int) Int)
(declare-fun v4 (Int) Int)
(declare-fun f3 (Int) Int)
(declare-fun g3 () Int)
(declare-fun h3 (Int Int) Int)
(declare-fun u3 (Int Int) Int)
(declare-fun v3 (Int Int) Int)
(declare-fun f2 (Int Int) Int)
(declare-fun g2 (Int) Int)
(declare-fun h2 () Int)
(declare-fun u2 (Int Int) Int)
(declare-fun v2 (Int) Int)
(declare-fun fast (Int) Int)
(assert (forall ((x Int)) (= (f1 x) (divf (ite (<= (modf x 2) 0) (+ 2 (+ (+ x x) x)) x) 2))))
(assert (forall ((x Int)) (= (g1 x) (+ x x))))
(assert (forall ((x Int) (y Int)) (= (h1 x y) y)))
(assert (forall ((x Int) (y Int)) (= (u1 x y) (ite (<= x 0) y (f1 (u1 (- x 1) y))))))
(assert (forall ((x Int) (y Int)) (= (v1 x y) (u1 (g1 x) (h1 x y)))))
(assert (forall ((x Int) (y Int)) (= (f0 x y) (+ (v1 x y) x))))
(assert (forall ((x Int)) (= (g0 x) x)))
(assert (forall ((x Int)) (= (h0 x) x)))
(assert (forall ((x Int) (y Int)) (= (u0 x y) (ite (<= x 0) y (f0 (u0 (- x 1) y) x)))))
(assert (forall ((x Int)) (= (v0 x) (u0 (g0 x) (h0 x)))))
(assert (forall ((x Int)) (= (small x) (+ (v0 x) 1))))
(assert (forall ((x Int)) (= (f4 x) (divf (ite (<= (modf x 2) 0) (+ 2 (+ (+ x x) x)) x) 2))))
(assert (forall ((x Int)) (= (g4 x) (+ x x))))
(assert (forall ((x Int)) (= (h4 x) x)))
(assert (forall ((x Int) (y Int)) (= (u4 x y) (ite (<= x 0) y (f4 (u4 (- x 1) y))))))
(assert (forall ((x Int)) (= (v4 x) (u4 (g4 x) (h4 x)))))
(assert (forall ((x Int)) (= (f3 x) (modf (v4 x) 2))))
(assert (= g3 1))
(assert (forall ((x Int) (y Int)) (= (h3 x y) y)))
(assert (forall ((x Int) (y Int)) (= (u3 x y) (ite (<= x 0) y (f3 (u3 (- x 1) y))))))
(assert (forall ((x Int) (y Int)) (= (v3 x y) (u3 g3 (h3 x y)))))
(assert (forall ((x Int) (y Int)) (= (f2 x y) (+ (v3 x y) x))))
(assert (forall ((x Int)) (= (g2 x) x)))
(assert (= h2 1))
(assert (forall ((x Int) (y Int)) (= (u2 x y) (ite (<= x 0) y (f2 (u2 (- x 1) y) x)))))
(assert (forall ((x Int)) (= (v2 x) (u2 (g2 x) h2))))
(assert (forall ((x Int)) (= (fast x) (+ (v2 x) x))))
(assert (exists ((c Int)) (and (>= c 0) (not (= (small c) (fast c))))))
(check-sat)
